1573061
25,36,8,76,65,9,14,22,78,66,3,91,73,47,79,20,12,92,95,61,18,72,17,49,75,86,104,99,21,63,23,108,89,4,34,97,51,28,15,106,93,45,58,83,50,1,80,31,94,60,84,42,24,33,100,0,81,44,82,2,62,19,43,5,29,102,55,16,52,30,74,56,85,26,68,69,13,38,46,70,6,87,41,59,105,107,77,32,54,67,39,7,27,35,11,64,98,101,53,57,103,96,88,90,10,48,40,37,71,25